# layout:
# [common] # for common MEs shared between all MIBs
# <class id> <instance id> <attribute 1> ... <attribute 16>\n
# ....
#
# [<olt index1, see omci_olt> <olt index2> <olt index N>]
# <class id> <instance id> <attribute 1> ... <attribute 16>\n
# ...
#
# conventions:
# - \s is used to place a space (ASCII 0x20)
# - \0 is used to place ASCII 0
# - enclose "a b c" in quotes (either single or double) to interpret it as one
# attribute
#
# numbers radix defined by prefix (0x for 16; 0 for 8; nothing for 10)

# Note:
# using a * it's possible to make the specified ME inactive (not accessing the hardware)
# * <class id> <instance id> <attribute 1> ... <attribute 16>\n

[common]

# large string
#157 0 0 "                        "

# network address
137 0 0 0

# VoIP config data
138 0 0x01 0x01 0x0000001 0x00 0x0000 0x00 0x00 "                         "

# ONT-G
256 0 CIGG 00109-80120-10 12345678 2 0 0 0 0 #0

# ONT2-G
257 0 00000000109-80120-10 0xa0 0 1 1 64 64 1 128 0 0 0 0 48

# ONT data
2 0 0

# Software image
7 0
7 1

# ONT remote debug
158 0 0 "                         "

# OLT-G
131 0 "    " "                    " "              "

[0 1] # Unknown; NSN

# ANI Cardholder
5 0x0180 249 249 0xff "                    " "                    " 0x0000 0x0000 0 0

# ANI Circuit pack
6 0x0180 249 18 12345678 00109-80120-10 CIGG 0 0 0 00000000109-80120-10 0 0 0 0 0

# PON PPTP UNI
40 0x8001

# ANI-G
263 0x8001 1 31 48 0 0 5 9 0 0 0 0xff 0xff 170 0 0xff 0xff

# UNI Cardholder
5 0x0181 47 47 0xff "                    " "                    " 0x0000 0x0000 0 0

# UNI Circuit Pack
6 0x0181 47 52 12345678 00109-80120-10 CIGG 0 0 0 00000000109-80120-10 0 0 0 0 0

# Traffic Scheduler (DS)
278 0xff40 0x0000 0x0000 0x00 0x00
278 0xff41 0x0000 0x0000 0x00 0x00

# PPTP Ethernet UNI (DS)
11 0x0401 0 24 0 0x00 0 0 2 1518 0 0xffff 0 0 0 0 0
11 0x0402 0 24 0 0x00 0 0 2 1518 0 0xffff 0 0 0 0 0

# Ethernet performance monitoring history data
24 0x0401 0 0 0 0 0 0 0 0 0 0 0 0 0 0 0 0
24 0x0402 0 0 0 0 0 0 0 0 0 0 0 0 0 0 0 0

# Priority Queue (DS) 8 times per PPTP Ethernet UNI
# class id, managed entity id, Queue configuration option, Maximum queue size
# Allocated queue size, Discard-block counter reset interval, Threshold value for discarded blocks due to buffer overflow, Related port
# Traffic scheduler-G pointer, Weight, Back pressure operation, Back pressure time
# Back pressure occur queue threshold, Back pressure clear queue threshold, Packet drop queue thresholds, Packet drop max_p
# Queue_drop_w_q, Drop precedence colour marking
#
# QID (prio queue, class id 277) = me_id & 0x00ff
# SBIN = (sbid << 3) + leaf
# 	sbid = traffic_scheduler_g_ptr & 0x7f
# 	leaf = related_port & 0x07
# EPN DS (egress port number downstream) = ((related_port >> 16) & 0xFF) + 63
# EPN US (egress port number upstream) = ((related_port >> 16) & 0xFF)
#
# Maximum queue size = 0x6000 (GEM blocks of 48 bytes)
# = 2304 (max segments in ssb) * 8 (segemt unit) * 64 (bytes per segment) / 48 (byte per GEM block)
# 
277 0x0080 1 0x6000 0xff 60000 0xffff 0x04010000 0xff40 0x00 0x01 0x00000000 0xffff 0xffff
277 0x0081 1 0x6000 0xff 60000 0xffff 0x04010001 0xff40 0x01 0x01 0x00000000 0xffff 0xffff
277 0x0082 1 0x6000 0xff 60000 0xffff 0x04010002 0xff40 0x02 0x01 0x00000000 0xffff 0xffff
277 0x0083 1 0x6000 0xff 60000 0xffff 0x04010003 0xff40 0x03 0x01 0x00000000 0xffff 0xffff
277 0x0084 1 0x6000 0xff 60000 0xffff 0x04010004 0xff40 0x04 0x01 0x00000000 0xffff 0xffff
277 0x0085 1 0x6000 0xff 60000 0xffff 0x04010005 0xff40 0x05 0x01 0x00000000 0xffff 0xffff
277 0x0086 1 0x6000 0xff 60000 0xffff 0x04010006 0xff40 0x06 0x01 0x00000000 0xffff 0xffff
277 0x0087 1 0x6000 0xff 60000 0xffff 0x04010007 0xff40 0x07 0x01 0x00000000 0xffff 0xffff
277 0x0088 1 0x6000 0xff 60000 0xffff 0x04020000 0xff41 0x00 0x01 0x00000000 0xffff 0xffff
277 0x0089 1 0x6000 0xff 60000 0xffff 0x04020001 0xff41 0x01 0x01 0x00000000 0xffff 0xffff
277 0x008a 1 0x6000 0xff 60000 0xffff 0x04020002 0xff41 0x02 0x01 0x00000000 0xffff 0xffff
277 0x008b 1 0x6000 0xff 60000 0xffff 0x04020003 0xff41 0x03 0x01 0x00000000 0xffff 0xffff
277 0x008c 1 0x6000 0xff 60000 0xffff 0x04020004 0xff41 0x04 0x01 0x00000000 0xffff 0xffff
277 0x008d 1 0x6000 0xff 60000 0xffff 0x04020005 0xff41 0x05 0x01 0x00000000 0xffff 0xffff
277 0x008e 1 0x6000 0xff 60000 0xffff 0x04020006 0xff41 0x06 0x01 0x00000000 0xffff 0xffff
277 0x008f 1 0x6000 0xff 60000 0xffff 0x04020007 0xff41 0x07 0x01 0x00000000 0xffff 0xffff

# UNI-G
264 0x0401 0 0
264 0x0402 0 0

# PPTP POTS UNI
53 0x0601 0 0x0000 0 0 0 0 0 0 0 0 0
53 0x0602 0 0x0000 0 0 0 0 0 0 0 0 0

# T-CONT (US)
262 0x8000 0x00ff 1 0
262 0x8001 0x00ff 1 0
262 0x8002 0x00ff 1 0
262 0x8003 0x00ff 1 0
262 0x8004 0x00ff 1 0
262 0x8005 0x00ff 1 0
262 0x8006 0x00ff 1 0
262 0x8007 0x00ff 1 0
262 0x8008 0x00ff 1 0
262 0x8009 0x00ff 1 0
262 0x800a 0x00ff 1 0
262 0x800b 0x00ff 1 0
262 0x800c 0x00ff 1 0
262 0x800d 0x00ff 1 0
262 0x800e 0x00ff 1 0
262 0x800f 0x00ff 1 0
262 0x8010 0x00ff 1 0
262 0x8011 0x00ff 1 0
262 0x8012 0x00ff 1 0
262 0x8013 0x00ff 1 0
262 0x8014 0x00ff 1 0
262 0x8015 0x00ff 1 0
262 0x8016 0x00ff 1 0
262 0x8017 0x00ff 1 0
262 0x8018 0x00ff 1 0
262 0x8019 0x00ff 1 0
262 0x801a 0x00ff 1 0
262 0x801b 0x00ff 1 0
262 0x801c 0x00ff 1 0
262 0x801d 0x00ff 1 0
262 0x801e 0x00ff 1 0

# Traffic Scheduler (US) (one for each TCONT)
278 0xff00 0x8000 0x0000 0x00 0x00
278 0xff01 0x8001 0x0000 0x00 0x00
278 0xff02 0x8002 0x0000 0x00 0x00
278 0xff03 0x8003 0x0000 0x00 0x00
278 0xff04 0x8004 0x0000 0x00 0x00
278 0xff05 0x8005 0x0000 0x00 0x00
278 0xff06 0x8006 0x0000 0x00 0x00
278 0xff07 0x8007 0x0000 0x00 0x00
278 0xff08 0x8008 0x0000 0x00 0x00
278 0xff09 0x8009 0x0000 0x00 0x00
278 0xff0a 0x800a 0x0000 0x00 0x00
278 0xff0b 0x800b 0x0000 0x00 0x00
278 0xff0c 0x800c 0x0000 0x00 0x00
278 0xff0d 0x800d 0x0000 0x00 0x00
278 0xff0e 0x800e 0x0000 0x00 0x00
278 0xff0f 0x800f 0x0000 0x00 0x00
278 0xff10 0x8010 0x0000 0x00 0x00
278 0xff11 0x8011 0x0000 0x00 0x00
278 0xff12 0x8012 0x0000 0x00 0x00
278 0xff13 0x8013 0x0000 0x00 0x00
278 0xff14 0x8014 0x0000 0x00 0x00
278 0xff15 0x8015 0x0000 0x00 0x00
278 0xff16 0x8016 0x0000 0x00 0x00
278 0xff17 0x8017 0x0000 0x00 0x00
278 0xff18 0x8018 0x0000 0x00 0x00
278 0xff19 0x8019 0x0000 0x00 0x00
278 0xff1a 0x801a 0x0000 0x00 0x00
278 0xff1b 0x801b 0x0000 0x00 0x00
278 0xff1c 0x801c 0x0000 0x00 0x00
278 0xff1d 0x801d 0x0000 0x00 0x00
278 0xff1e 0x801e 0x0000 0x00 0x00

# UNI Priority Queue (US) 4 times per Traffic Scheduler (US)
277 0x8000 1 0x6000 0xff 60000 0xffff 0x80000000 0xff00 0x00 0x01 0x00000000 0xffff 0xffff
277 0x8001 1 0x6000 0xff 60000 0xffff 0x80000001 0xff00 0x01 0x01 0x00000000 0xffff 0xffff
277 0x8002 1 0x6000 0xff 60000 0xffff 0x80000002 0xff00 0x02 0x01 0x00000000 0xffff 0xffff
277 0x8003 1 0x6000 0xff 60000 0xffff 0x80000003 0xff00 0x03 0x01 0x00000000 0xffff 0xffff
277 0x8004 1 0x6000 0xff 60000 0xffff 0x80010000 0xff01 0x00 0x01 0x00000000 0xffff 0xffff
277 0x8005 1 0x6000 0xff 60000 0xffff 0x80010001 0xff01 0x01 0x01 0x00000000 0xffff 0xffff
277 0x8006 1 0x6000 0xff 60000 0xffff 0x80010002 0xff01 0x02 0x01 0x00000000 0xffff 0xffff
277 0x8007 1 0x6000 0xff 60000 0xffff 0x80010003 0xff01 0x03 0x01 0x00000000 0xffff 0xffff
277 0x8008 1 0x6000 0xff 60000 0xffff 0x80020000 0xff02 0x00 0x01 0x00000000 0xffff 0xffff
277 0x8009 1 0x6000 0xff 60000 0xffff 0x80020001 0xff02 0x01 0x01 0x00000000 0xffff 0xffff
277 0x800a 1 0x6000 0xff 60000 0xffff 0x80020002 0xff02 0x02 0x01 0x00000000 0xffff 0xffff
277 0x800b 1 0x6000 0xff 60000 0xffff 0x80020003 0xff02 0x03 0x01 0x00000000 0xffff 0xffff
277 0x800c 1 0x6000 0xff 60000 0xffff 0x80030000 0xff03 0x00 0x01 0x00000000 0xffff 0xffff
277 0x800d 1 0x6000 0xff 60000 0xffff 0x80030001 0xff03 0x01 0x01 0x00000000 0xffff 0xffff
277 0x800e 1 0x6000 0xff 60000 0xffff 0x80030002 0xff03 0x02 0x01 0x00000000 0xffff 0xffff
277 0x800f 1 0x6000 0xff 60000 0xffff 0x80030003 0xff03 0x03 0x01 0x00000000 0xffff 0xffff
277 0x8010 1 0x6000 0xff 60000 0xffff 0x80040000 0xff04 0x00 0x01 0x00000000 0xffff 0xffff
277 0x8011 1 0x6000 0xff 60000 0xffff 0x80040001 0xff04 0x01 0x01 0x00000000 0xffff 0xffff
277 0x8012 1 0x6000 0xff 60000 0xffff 0x80040002 0xff04 0x02 0x01 0x00000000 0xffff 0xffff
277 0x8013 1 0x6000 0xff 60000 0xffff 0x80040003 0xff04 0x03 0x01 0x00000000 0xffff 0xffff
277 0x8014 1 0x6000 0xff 60000 0xffff 0x80050000 0xff05 0x00 0x01 0x00000000 0xffff 0xffff
277 0x8015 1 0x6000 0xff 60000 0xffff 0x80050001 0xff05 0x01 0x01 0x00000000 0xffff 0xffff
277 0x8016 1 0x6000 0xff 60000 0xffff 0x80050002 0xff05 0x02 0x01 0x00000000 0xffff 0xffff
277 0x8017 1 0x6000 0xff 60000 0xffff 0x80050003 0xff05 0x03 0x01 0x00000000 0xffff 0xffff
277 0x8018 1 0x6000 0xff 60000 0xffff 0x80060000 0xff06 0x00 0x01 0x00000000 0xffff 0xffff
277 0x8019 1 0x6000 0xff 60000 0xffff 0x80060001 0xff06 0x01 0x01 0x00000000 0xffff 0xffff
277 0x801a 1 0x6000 0xff 60000 0xffff 0x80060002 0xff06 0x02 0x01 0x00000000 0xffff 0xffff
277 0x801b 1 0x6000 0xff 60000 0xffff 0x80060003 0xff06 0x03 0x01 0x00000000 0xffff 0xffff
277 0x801c 1 0x6000 0xff 60000 0xffff 0x80070000 0xff07 0x00 0x01 0x00000000 0xffff 0xffff
277 0x801d 1 0x6000 0xff 60000 0xffff 0x80070001 0xff07 0x01 0x01 0x00000000 0xffff 0xffff
277 0x801e 1 0x6000 0xff 60000 0xffff 0x80070002 0xff07 0x02 0x01 0x00000000 0xffff 0xffff
277 0x801f 1 0x6000 0xff 60000 0xffff 0x80070003 0xff07 0x03 0x01 0x00000000 0xffff 0xffff
277 0x8020 1 0x6000 0xff 60000 0xffff 0x80080000 0xff08 0x00 0x01 0x00000000 0xffff 0xffff
277 0x8021 1 0x6000 0xff 60000 0xffff 0x80080001 0xff08 0x01 0x01 0x00000000 0xffff 0xffff
277 0x8022 1 0x6000 0xff 60000 0xffff 0x80080002 0xff08 0x02 0x01 0x00000000 0xffff 0xffff
277 0x8023 1 0x6000 0xff 60000 0xffff 0x80080003 0xff08 0x03 0x01 0x00000000 0xffff 0xffff
277 0x8024 1 0x6000 0xff 60000 0xffff 0x80090000 0xff09 0x00 0x01 0x00000000 0xffff 0xffff
277 0x8025 1 0x6000 0xff 60000 0xffff 0x80090001 0xff09 0x01 0x01 0x00000000 0xffff 0xffff
277 0x8026 1 0x6000 0xff 60000 0xffff 0x80090002 0xff09 0x02 0x01 0x00000000 0xffff 0xffff
277 0x8027 1 0x6000 0xff 60000 0xffff 0x80090003 0xff09 0x03 0x01 0x00000000 0xffff 0xffff
277 0x8028 1 0x6000 0xff 60000 0xffff 0x800a0000 0xff0a 0x00 0x01 0x00000000 0xffff 0xffff
277 0x8029 1 0x6000 0xff 60000 0xffff 0x800a0001 0xff0a 0x01 0x01 0x00000000 0xffff 0xffff
277 0x802a 1 0x6000 0xff 60000 0xffff 0x800a0002 0xff0a 0x02 0x01 0x00000000 0xffff 0xffff
277 0x802b 1 0x6000 0xff 60000 0xffff 0x800a0003 0xff0a 0x03 0x01 0x00000000 0xffff 0xffff
277 0x802c 1 0x6000 0xff 60000 0xffff 0x800b0000 0xff0b 0x00 0x01 0x00000000 0xffff 0xffff
277 0x802d 1 0x6000 0xff 60000 0xffff 0x800b0001 0xff0b 0x01 0x01 0x00000000 0xffff 0xffff
277 0x802e 1 0x6000 0xff 60000 0xffff 0x800b0002 0xff0b 0x02 0x01 0x00000000 0xffff 0xffff
277 0x802f 1 0x6000 0xff 60000 0xffff 0x800b0003 0xff0b 0x03 0x01 0x00000000 0xffff 0xffff
277 0x8030 1 0x6000 0xff 60000 0xffff 0x800c0000 0xff0c 0x00 0x01 0x00000000 0xffff 0xffff
277 0x8031 1 0x6000 0xff 60000 0xffff 0x800c0001 0xff0c 0x01 0x01 0x00000000 0xffff 0xffff
277 0x8032 1 0x6000 0xff 60000 0xffff 0x800c0002 0xff0c 0x02 0x01 0x00000000 0xffff 0xffff
277 0x8033 1 0x6000 0xff 60000 0xffff 0x800c0003 0xff0c 0x03 0x01 0x00000000 0xffff 0xffff
277 0x8034 1 0x6000 0xff 60000 0xffff 0x800d0000 0xff0d 0x00 0x01 0x00000000 0xffff 0xffff
277 0x8035 1 0x6000 0xff 60000 0xffff 0x800d0001 0xff0d 0x01 0x01 0x00000000 0xffff 0xffff
277 0x8036 1 0x6000 0xff 60000 0xffff 0x800d0002 0xff0d 0x02 0x01 0x00000000 0xffff 0xffff
277 0x8037 1 0x6000 0xff 60000 0xffff 0x800d0003 0xff0d 0x03 0x01 0x00000000 0xffff 0xffff
277 0x8038 1 0x6000 0xff 60000 0xffff 0x800e0000 0xff0e 0x00 0x01 0x00000000 0xffff 0xffff
277 0x8039 1 0x6000 0xff 60000 0xffff 0x800e0001 0xff0e 0x01 0x01 0x00000000 0xffff 0xffff
277 0x803a 1 0x6000 0xff 60000 0xffff 0x800e0002 0xff0e 0x02 0x01 0x00000000 0xffff 0xffff
277 0x803b 1 0x6000 0xff 60000 0xffff 0x800e0003 0xff0e 0x03 0x01 0x00000000 0xffff 0xffff
277 0x803c 1 0x6000 0xff 60000 0xffff 0x800f0000 0xff0f 0x00 0x01 0x00000000 0xffff 0xffff
277 0x803d 1 0x6000 0xff 60000 0xffff 0x800f0001 0xff0f 0x01 0x01 0x00000000 0xffff 0xffff
277 0x803e 1 0x6000 0xff 60000 0xffff 0x800f0002 0xff0f 0x02 0x01 0x00000000 0xffff 0xffff
277 0x803f 1 0x6000 0xff 60000 0xffff 0x800f0003 0xff0f 0x03 0x01 0x00000000 0xffff 0xffff
#todo
# add up to 7f queues

# Power Shedding
133 0

# Port mapping package-G
297 0 0 \0\0\0\0\0\0\0\0\0\0\0\0\0\0\0\0 \0\0\0\0\0\0\0\0\0\0\0\0\0\0\0\0 \0\0\0\0\0\0\0\0\0\0\0\0\0\0\0\0 \0\0\0\0\0\0\0\0\0\0\0\0\0\0\0\0 \0\0\0\0\0\0\0\0\0\0\0\0\0\0\0\0 \0\0\0\0\0\0\0\0\0\0\0\0\0\0\0\0 \0\0\0\0\0\0\0\0\0\0\0\0\0\0\0\0 \0\0\0\0\0\0\0\0\0\0\0\0\0\0\0\0

# Equipment extension package
160 0

# IP host config data
134 0

#240 0 0000000000000000000000000000000
#46 0 000000 0 00000000 0 0 0 0 0
#45 0 0 0 0 0 0x600 0x100 0x400 0 0

#241 0
#263 0x0301 1 31 48 0 0 5 9 0 0 0 0xff 0xff 170 0 0xff 0xff
#6 3 47 52 12345678 00109-80120-10 CIGG 0 0 0 00000000109-80120-10 0 0 0 0 0
#249 0
#249 3
#5 1 47 47 0xff "                    " "                    " 0x0000 0x0000 #0 0
#5 2 47 47 0xff "                    " "                    " 0x0000 0x0000 #0 0
#5 4 47 47 0xff "                    " "                    " 0x0000 0x0000 #0 0
#5 5 47 47 0xff "                    " "                    " 0x0000 0x0000 #0 0

[2] # MOTO
0xffff 0xffff # should generate error

[3] # OpenCon
0xffff 0xffff # should generate error
